64 64 64 63 62 65 64 66 63 61 64 63 66 62 66 63 64 66 65 66 
64 65 64 62 64 63 62 64 61 62 66 65 65 63 65 64 64 65 64 66 
68 66 66 68 65 66 69 66 66 66 67 67 64 64 65 67 65 66 66 65 
62 66 64 66 63 64 63 65 62 63 65 66 66 65 66 67 64 64 66 66 
65 64 66 64 66 62 62 66 62 64 64 67 64 62 65 65 64 66 66 66 
69 66 65 67 68 69 70 66 69 70 67 65 66 69 66 64 64 66 66 66 
64 64 64 65 61 62 64 65 62 62 64 64 66 63 65 66 65 66 66 66 
64 65 64 68 65 67 67 64 66 67 64 67 66 65 63 66 66 65 66 64 
63 66 66 62 63 61 63 64 61 61 65 64 64 63 64 63 65 64 65 64 
69 66 66 68 70 67 70 64 69 70 66 67 66 67 67 67 66 64 66 66 
68 64 66 63 66 65 67 66 67 66 63 65 65 64 63 67 66 66 64 66 
60 65 64 63 62 62 60 65 61 60 63 63 66 61 63 63 66 64 64 64 
62 64 66 62 61 61 61 65 62 64 66 63 66 62 65 64 64 66 66 64 
66 65 66 68 65 64 64 65 67 65 67 67 64 67 66 66 64 64 66 65 
62 64 66 63 61 64 60 64 65 60 63 63 65 62 66 65 66 64 64 64 
68 65 65 65 64 65 68 65 66 65 64 65 66 64 64 64 66 64 65 66 
70 66 66 66 68 66 68 66 67 67 66 66 66 68 67 64 66 64 66 64 
66 66 64 65 68 65 67 66 68 67 66 67 66 67 67 65 66 66 66 66 
65 66 65 64 62 64 66 66 62 64 63 67 65 62 67 67 64 64 66 66 
66 66 65 66 69 66 67 66 67 67 66 64 66 66 67 66 66 64 64 64 
69 64 66 67 68 69 69 66 68 68 67 67 66 66 67 67 65 64 66 66 
65 64 64 67 63 64 63 64 67 64 64 66 64 63 66 67 64 66 66 65 
70 64 66 66 70 67 70 65 67 69 65 67 66 69 67 65 66 66 66 64 
62 66 66 62 64 64 62 64 62 61 63 64 64 64 63 64 66 66 64 66 
70 64 66 67 67 69 70 64 68 67 65 65 66 68 67 66 66 66 66 65 
64 65 65 65 63 62 63 64 65 62 64 65 65 66 65 64 65 66 66 66 
67 66 65 68 68 68 69 66 66 69 64 67 65 68 65 67 66 66 64 66 
67 65 66 65 66 63 64 64 65 63 67 64 65 66 66 67 65 66 66 66 
70 65 66 68 68 67 68 64 69 67 67 67 66 68 66 65 66 66 64 66 
64 66 64 62 64 63 61 65 65 61 63 63 64 63 63 65 64 65 64 64 
70 64 65 68 67 68 68 66 67 68 67 64 66 69 65 67 66 66 65 66 
66 65 64 67 68 64 65 64 68 68 67 66 66 68 64 67 64 64 66 66 
68 64 64 64 65 69 66 66 69 68 66 64 65 68 64 67 64 64 65 65 
60 64 64 62 60 61 62 66 61 60 63 63 64 63 63 63 64 64 66 66 
66 66 66 67 64 64 66 65 63 65 66 67 65 64 64 63 64 65 66 64 
63 66 64 62 63 61 62 66 64 62 65 65 64 62 65 63 64 65 64 64 
64 64 64 65 67 64 65 64 67 64 67 67 64 64 65 63 65 65 64 66 
68 64 65 67 64 64 68 64 68 67 66 66 65 68 67 65 66 64 64 64 
60 64 66 62 60 61 62 65 64 60 64 63 64 64 64 65 64 64 64 64 
68 64 66 66 66 68 69 64 65 65 65 66 66 69 66 66 66 66 65 66 
63 64 66 65 63 63 63 64 65 65 66 63 66 66 65 65 64 66 66 64 
70 65 66 67 69 69 70 66 69 70 67 67 66 69 67 67 66 65 65 65 
66 66 66 68 66 67 68 66 68 66 65 67 65 68 64 64 65 64 65 65 
66 64 64 65 66 68 68 66 68 67 64 65 64 68 67 67 64 66 65 64 
60 66 64 63 61 61 63 64 63 60 63 63 64 61 63 65 64 65 65 64 
65 64 64 66 66 64 65 66 65 68 65 64 64 68 66 65 64 66 66 64 
62 64 66 64 65 63 63 66 64 61 65 63 66 62 63 63 64 65 66 66 
63 65 64 62 60 64 62 65 62 64 64 63 64 65 63 64 64 64 65 64 
68 66 64 68 68 65 68 66 67 65 63 65 65 67 63 63 64 66 66 64 
62 65 66 62 61 61 60 65 61 61 63 65 64 61 63 65 64 66 64 66 